c nombre: 34
c densidad: 0.3
p edges 60 498
e 1 3
e 1 4
e 1 5
e 1 14
e 1 18
e 1 20
e 1 21
e 1 26
e 1 28
e 1 39
e 1 41
e 1 55
e 1 56
e 1 59
e 1 60
e 2 6
e 2 7
e 2 8
e 2 12
e 2 13
e 2 14
e 2 16
e 2 18
e 2 22
e 2 25
e 2 31
e 2 32
e 2 36
e 2 39
e 2 42
e 2 45
e 2 46
e 2 48
e 2 52
e 2 59
e 2 60
e 3 8
e 3 12
e 3 17
e 3 20
e 3 22
e 3 28
e 3 36
e 3 38
e 3 39
e 3 42
e 3 56
e 3 57
e 3 59
e 4 10
e 4 12
e 4 19
e 4 28
e 4 31
e 4 32
e 4 33
e 4 38
e 4 40
e 4 44
e 4 45
e 4 49
e 4 53
e 4 56
e 5 8
e 5 10
e 5 14
e 5 29
e 5 32
e 5 41
e 5 42
e 5 48
e 5 50
e 5 54
e 5 55
e 5 57
e 5 60
e 6 9
e 6 13
e 6 14
e 6 17
e 6 22
e 6 33
e 6 35
e 6 37
e 6 42
e 6 43
e 6 47
e 6 50
e 7 9
e 7 11
e 7 15
e 7 17
e 7 26
e 7 27
e 7 29
e 7 34
e 7 35
e 7 36
e 7 38
e 7 39
e 7 44
e 7 45
e 7 49
e 7 53
e 8 16
e 8 17
e 8 18
e 8 22
e 8 26
e 8 28
e 8 31
e 8 36
e 8 37
e 8 39
e 8 50
e 8 51
e 8 55
e 8 57
e 8 58
e 9 13
e 9 14
e 9 15
e 9 16
e 9 19
e 9 22
e 9 23
e 9 24
e 9 38
e 9 43
e 9 44
e 9 46
e 9 54
e 9 58
e 9 59
e 10 11
e 10 12
e 10 20
e 10 31
e 10 39
e 10 41
e 10 42
e 10 56
e 10 57
e 10 60
e 11 12
e 11 14
e 11 22
e 11 26
e 11 27
e 11 29
e 11 31
e 11 35
e 11 36
e 11 38
e 11 50
e 11 51
e 11 55
e 11 57
e 11 58
e 11 59
e 12 13
e 12 14
e 12 16
e 12 17
e 12 21
e 12 23
e 12 26
e 12 28
e 12 35
e 12 38
e 12 46
e 12 49
e 12 50
e 12 52
e 12 55
e 12 58
e 12 60
e 13 21
e 13 24
e 13 25
e 13 36
e 13 37
e 13 38
e 13 39
e 13 42
e 13 43
e 13 50
e 13 51
e 13 52
e 13 55
e 13 56
e 13 57
e 14 16
e 14 18
e 14 21
e 14 25
e 14 32
e 14 35
e 14 38
e 14 40
e 14 41
e 14 48
e 14 56
e 15 21
e 15 23
e 15 24
e 15 30
e 15 33
e 15 34
e 15 35
e 15 44
e 15 45
e 15 47
e 15 50
e 15 54
e 15 60
e 16 22
e 16 26
e 16 34
e 16 36
e 16 37
e 16 43
e 16 45
e 16 46
e 16 52
e 16 57
e 16 59
e 17 18
e 17 19
e 17 23
e 17 29
e 17 30
e 17 33
e 17 35
e 17 41
e 17 43
e 17 50
e 17 51
e 17 54
e 17 55
e 17 56
e 18 22
e 18 27
e 18 33
e 18 34
e 18 35
e 18 36
e 18 39
e 18 49
e 18 50
e 18 54
e 18 59
e 18 60
e 19 23
e 19 26
e 19 27
e 19 29
e 19 31
e 19 36
e 19 37
e 19 42
e 19 46
e 19 48
e 19 51
e 19 54
e 19 57
e 19 58
e 19 59
e 19 60
e 20 22
e 20 23
e 20 28
e 20 34
e 20 47
e 20 50
e 21 22
e 21 23
e 21 25
e 21 31
e 21 33
e 21 36
e 21 37
e 21 50
e 21 53
e 21 60
e 22 26
e 22 28
e 22 29
e 22 33
e 22 34
e 22 35
e 22 37
e 22 38
e 22 39
e 22 42
e 22 46
e 22 48
e 22 51
e 22 60
e 23 35
e 23 37
e 23 40
e 23 42
e 23 45
e 23 47
e 23 48
e 23 49
e 23 52
e 23 53
e 23 54
e 24 27
e 24 32
e 24 33
e 24 35
e 24 45
e 24 48
e 24 50
e 24 57
e 24 58
e 24 59
e 24 60
e 25 28
e 25 33
e 25 35
e 25 42
e 25 44
e 25 48
e 25 51
e 25 54
e 25 55
e 25 56
e 25 58
e 26 29
e 26 32
e 26 41
e 26 44
e 26 48
e 26 51
e 26 52
e 26 54
e 26 55
e 27 30
e 27 35
e 27 39
e 27 41
e 27 42
e 27 44
e 27 47
e 27 48
e 27 49
e 27 50
e 27 52
e 27 57
e 28 34
e 28 40
e 28 45
e 28 50
e 28 52
e 28 56
e 28 57
e 29 30
e 29 36
e 29 40
e 29 41
e 29 42
e 29 47
e 29 53
e 29 55
e 29 56
e 30 33
e 30 34
e 30 37
e 30 43
e 30 48
e 30 50
e 30 53
e 30 56
e 31 34
e 31 38
e 31 46
e 31 50
e 31 52
e 31 55
e 31 56
e 32 33
e 32 38
e 32 41
e 32 42
e 32 57
e 33 35
e 33 36
e 33 40
e 33 41
e 33 45
e 33 55
e 34 37
e 34 39
e 34 46
e 34 51
e 34 55
e 34 59
e 35 38
e 35 39
e 35 40
e 35 42
e 35 45
e 35 53
e 35 54
e 35 58
e 36 38
e 36 39
e 36 41
e 36 50
e 36 53
e 36 54
e 36 58
e 37 39
e 37 43
e 37 44
e 37 46
e 37 47
e 37 51
e 37 52
e 37 55
e 38 41
e 38 42
e 38 43
e 38 49
e 38 51
e 38 52
e 38 54
e 38 57
e 39 40
e 39 43
e 39 45
e 39 54
e 40 43
e 40 46
e 40 57
e 40 59
e 41 47
e 41 48
e 41 53
e 41 56
e 42 45
e 42 47
e 42 57
e 42 58
e 43 44
e 43 46
e 43 47
e 43 48
e 43 50
e 43 54
e 43 56
e 43 59
e 44 53
e 44 54
e 44 55
e 44 57
e 45 49
e 45 50
e 46 47
e 46 49
e 46 51
e 46 54
e 46 55
e 46 56
e 46 60
e 47 48
e 47 49
e 47 51
e 47 52
e 47 53
e 47 54
e 48 49
e 48 51
e 48 53
e 48 57
e 49 54
e 50 52
e 50 53
e 50 58
e 50 59
e 51 52
e 51 55
e 51 60
e 52 55
e 52 58
e 53 58
e 53 60
e 54 57
e 56 57
e 57 58
e 57 59
e 57 60
e 58 59
e 59 60
